
Gurobi 9.1.2 (linux64, gurobi_cl) logging started Fri Jul 30 13:51:55 2021

Using license file /opt/gurobi/gurobi.lic
Set parameter TimeLimit to value 600
Set parameter MIPFocus to value 1
Set parameter LogFile to value 912-MIPFocus1-Presolve1-glass4-1.log
Set parameter Presolve to value 1
Set parameter Seed to value 1

Gurobi Optimizer version 9.1.2 build v9.1.2rc0 (linux64)
Copyright (c) 2021, Gurobi Optimization, LLC

Read MPS format model from file /nfs/models/mip/glass4.mps.bz2
Reading time = 0.15 seconds
glass4: 396 rows, 322 columns, 1815 nonzeros
Thread count: 4 physical cores, 8 logical processors, using up to 8 threads
Optimize a model with 396 rows, 322 columns and 1815 nonzeros
Model fingerprint: 0x0a9d9037
Variable types: 20 continuous, 302 integer (0 binary)
Coefficient statistics:
  Matrix range     [1e+00, 8e+06]
  Objective range  [1e+00, 1e+06]
  Bounds range     [1e+00, 8e+02]
  RHS range        [1e+00, 8e+06]
Presolve removed 4 rows and 6 columns
Presolve time: 0.00s
Presolved: 392 rows, 316 columns, 1811 nonzeros
Variable types: 19 continuous, 297 integer (297 binary)
Found heuristic solution: objective 3.133356e+09

Root relaxation: objective 8.000024e+08, 72 iterations, 0.00 seconds

    Nodes    |    Current Node    |     Objective Bounds      |     Work
 Expl Unexpl |  Obj  Depth IntInf | Incumbent    BestBd   Gap | It/Node Time

     0     0 8.0000e+08    0   72 3.1334e+09 8.0000e+08  74.5%     -    0s
H    0     0                    2.200018e+09 8.0000e+08  63.6%     -    0s
H    0     0                    2.100019e+09 8.0000e+08  61.9%     -    0s
     0     0 8.0000e+08    0   72 2.1000e+09 8.0000e+08  61.9%     -    0s
     0     0 8.0000e+08    0   72 2.1000e+09 8.0000e+08  61.9%     -    0s
     0     0 8.0000e+08    0   75 2.1000e+09 8.0000e+08  61.9%     -    0s
H    0     0                    2.000017e+09 8.0000e+08  60.0%     -    0s
     0     0 8.0000e+08    0   76 2.0000e+09 8.0000e+08  60.0%     -    0s
     0     0 8.0000e+08    0   87 2.0000e+09 8.0000e+08  60.0%     -    0s
H    0     0                    1.900014e+09 8.0000e+08  57.9%     -    0s
     0     0 8.0000e+08    0   83 1.9000e+09 8.0000e+08  57.9%     -    0s
     0     0 8.0000e+08    0   83 1.9000e+09 8.0000e+08  57.9%     -    0s
     0     0 8.0000e+08    0   75 1.9000e+09 8.0000e+08  57.9%     -    0s
     0     0 8.0000e+08    0   88 1.9000e+09 8.0000e+08  57.9%     -    0s
     0     0 8.0000e+08    0   67 1.9000e+09 8.0000e+08  57.9%     -    0s
     0     0 8.0000e+08    0   65 1.9000e+09 8.0000e+08  57.9%     -    0s
     0     0 8.0000e+08    0   61 1.9000e+09 8.0000e+08  57.9%     -    0s
H    0     0                    1.850015e+09 8.0000e+08  56.8%     -    0s
     0     2 8.0000e+08    0   58 1.8500e+09 8.0000e+08  56.8%     -    0s
H  143   143                    1.750015e+09 8.0001e+08  54.3%  15.1    0s
H  300   287                    1.750013e+09 8.0001e+08  54.3%  11.6    0s
H 1347   923                    1.700014e+09 8.0001e+08  52.9%  15.0    3s
H 1439   946                    1.650014e+09 8.0001e+08  51.5%  14.9    3s
H 1456   912                    1.633347e+09 8.0001e+08  51.0%  14.9    4s
H 1545   891                    1.633347e+09 8.0001e+08  51.0%  15.3    4s
H 1546   860                    1.633347e+09 8.0001e+08  51.0%  15.3    4s
  1623   886 1.2000e+09   49   36 1.6333e+09 8.0001e+08  51.0%  15.4    5s
  4076  2362 9.7501e+08   59   31 1.6333e+09 9.0001e+08  44.9%  21.8   10s
* 4943  3010              60    1.600014e+09 9.0001e+08  43.8%  22.2   11s
* 4944  3007              60    1.600014e+09 9.0001e+08  43.8%  22.2   11s
  7271  4623 1.4000e+09   41   36 1.6000e+09 9.0001e+08  43.8%  23.2   15s
 11289  7320 1.5000e+09   39   36 1.6000e+09 9.0001e+08  43.8%  23.5   21s
H14543  8688                    1.600006e+09 9.0001e+08  43.7%  23.4   24s
 14685  9527 1.1000e+09   33   51 1.6000e+09 9.0001e+08  43.7%  23.4   25s
*18897 11323              62    1.583347e+09 9.0001e+08  43.2%  23.3   29s
 19057 12099 9.7465e+08   37   48 1.5833e+09 9.0001e+08  43.2%  23.3   30s
 23680 14634 9.1072e+08   54   40 1.5833e+09 9.0001e+08  43.2%  23.8   35s
 28939 17585 9.5001e+08   34   45 1.5833e+09 9.0001e+08  43.2%  23.9   41s
 34713 20483 infeasible   32      1.5833e+09 9.0001e+08  43.2%  24.0   46s
 39678 23116 1.2000e+09   45   45 1.5833e+09 9.0001e+08  43.2%  23.9   50s
 44524 25744 1.0000e+09   34   66 1.5833e+09 9.0001e+08  43.2%  24.1   55s
 51077 29113 1.1667e+09   52   39 1.5833e+09 9.0001e+08  43.2%  24.0   60s
 56326 31954 1.2333e+09   37   35 1.5833e+09 9.0001e+08  43.2%  23.5   65s
H59779 33342                    1.550013e+09 9.0001e+08  41.9%  23.6   68s
H60900 33698                    1.533346e+09 9.0001e+08  41.3%  23.6   69s
 62224 33993 1.3000e+09   49   26 1.5333e+09 9.0001e+08  41.3%  23.6   70s
 67195 37097 1.3625e+09   55   39 1.5333e+09 9.0001e+08  41.3%  24.0   75s
 74082 40089 1.0143e+09   53   47 1.5333e+09 9.0001e+08  41.3%  23.8   80s
 79582 42697 9.9073e+08   63   43 1.5333e+09 9.0001e+08  41.3%  23.9   85s
H81423 42669                    1.500014e+09 9.0001e+08  40.0%  23.8   86s
H83978 43674                    1.500014e+09 9.0001e+08  40.0%  23.8   88s
 85726 45659 1.1500e+09   49   37 1.5000e+09 9.0001e+08  40.0%  23.9   90s
H90372 46687                    1.500013e+09 9.0001e+08  40.0%  23.6   93s
H91372 46969                    1.500013e+09 9.0001e+08  40.0%  23.6   94s
 92193 47616 1.1000e+09   48   48 1.5000e+09 9.0001e+08  40.0%  23.6   96s
 97746 49737 infeasible   46      1.5000e+09 9.0001e+08  40.0%  23.8  100s
 103282 51881 infeasible   52      1.5000e+09 9.0001e+08  40.0%  24.0  105s
 109031 53951 1.1333e+09   50   28 1.5000e+09 9.0001e+08  40.0%  24.0  110s
 114542 56450 1.1000e+09   34   40 1.5000e+09 9.0001e+08  40.0%  24.1  115s
 120869 58934 1.1333e+09   72   33 1.5000e+09 9.0001e+08  40.0%  24.3  120s
 125138 60788 9.0338e+08   59   55 1.5000e+09 9.0001e+08  40.0%  24.3  125s
 132204 64724 1.2500e+09   73   28 1.5000e+09 9.0001e+08  40.0%  24.4  130s
 138620 66764 1.2000e+09   46   47 1.5000e+09 9.0001e+08  40.0%  24.1  135s
 144233 69181 1.4000e+09   37   25 1.5000e+09 9.0001e+08  40.0%  24.1  140s
 150025 71716 9.8334e+08   54   45 1.5000e+09 9.0001e+08  40.0%  24.3  145s
 156834 74275 1.3000e+09   56   31 1.5000e+09 9.0001e+08  40.0%  24.1  150s
 162538 76797 9.0001e+08   47   42 1.5000e+09 9.0001e+08  40.0%  24.1  155s
 167416 78594 infeasible   48      1.5000e+09 9.0001e+08  40.0%  24.1  160s
 173675 80856 1.3000e+09   64   29 1.5000e+09 9.0001e+08  40.0%  24.2  165s
 180014 83080 infeasible   50      1.5000e+09 9.0001e+08  40.0%  24.3  170s
 186854 85834 1.0092e+09   36   52 1.5000e+09 9.0001e+08  40.0%  24.2  175s
 191586 87627 1.3000e+09   37   42 1.5000e+09 9.0001e+08  40.0%  24.2  180s
 196989 89869 1.1500e+09   51   31 1.5000e+09 9.0001e+08  40.0%  24.2  185s
 202999 92185 infeasible   57      1.5000e+09 9.0001e+08  40.0%  24.3  190s
 207512 93982 1.0000e+09   45   44 1.5000e+09 9.0001e+08  40.0%  24.3  195s
 213927 96175 infeasible   39      1.5000e+09 9.0001e+08  40.0%  24.3  200s
 220036 98251 9.0001e+08   43   47 1.5000e+09 9.0001e+08  40.0%  24.4  205s
 224558 99908 1.2333e+09   68   26 1.5000e+09 9.0001e+08  40.0%  24.4  210s
 231061 102652 1.0750e+09   54   42 1.5000e+09 9.0001e+08  40.0%  24.4  216s
 236137 104322 infeasible   47      1.5000e+09 9.0001e+08  40.0%  24.4  220s
 241466 106340 1.0405e+09   52   52 1.5000e+09 9.0001e+08  40.0%  24.4  225s
 247403 108739 9.9386e+08   52   44 1.5000e+09 9.0001e+08  40.0%  24.4  230s
 253501 111317 1.1000e+09   40   43 1.5000e+09 9.0001e+08  40.0%  24.3  235s
 260329 113981 infeasible   61      1.5000e+09 9.0001e+08  40.0%  24.2  241s
 265420 115941 1.3505e+09   76   24 1.5000e+09 9.0001e+08  40.0%  24.2  245s
 270421 117987 infeasible   58      1.5000e+09 9.0001e+08  40.0%  24.2  250s
 276874 119990 infeasible   54      1.5000e+09 9.0001e+08  40.0%  24.2  255s
 285828 123861 1.0000e+09   44   46 1.5000e+09 9.0001e+08  40.0%  24.1  260s
 290395 125503 1.3667e+09   42   36 1.5000e+09 9.0001e+08  40.0%  24.1  265s
 296986 127770 9.0001e+08   48   47 1.5000e+09 9.0001e+08  40.0%  24.1  270s
 305004 130727 1.2000e+09   72   29 1.5000e+09 9.0001e+08  40.0%  24.0  275s
 310495 133030 infeasible   56      1.5000e+09 9.0001e+08  40.0%  24.0  280s
 316780 135473 1.0000e+09   48   44 1.5000e+09 9.0001e+08  40.0%  23.9  285s
 322207 137194 infeasible   65      1.5000e+09 9.0001e+08  40.0%  24.0  290s
 328430 139606 1.1333e+09   52   36 1.5000e+09 9.0001e+08  40.0%  23.9  295s
 335302 142507 9.0001e+08   53   37 1.5000e+09 9.0001e+08  40.0%  23.9  300s
 343060 145730 9.0001e+08   58   38 1.5000e+09 9.0001e+08  40.0%  23.7  305s
 347844 147802     cutoff   64      1.5000e+09 9.0001e+08  40.0%  23.7  310s
 353178 149588 1.2359e+09   65   31 1.5000e+09 9.0001e+08  40.0%  23.8  315s
 358541 151476 1.1722e+09   49   41 1.5000e+09 9.0001e+08  40.0%  23.8  320s
 364245 153964 infeasible   47      1.5000e+09 9.0001e+08  40.0%  23.7  326s
 370745 156285 9.0358e+08   50   42 1.5000e+09 9.0001e+08  40.0%  23.7  330s
 376057 158413 infeasible   67      1.5000e+09 9.0001e+08  40.0%  23.7  335s
 382402 161270 9.6668e+08   39   46 1.5000e+09 9.0001e+08  40.0%  23.6  340s
 388411 163142 infeasible   62      1.5000e+09 9.0001e+08  40.0%  23.6  345s
 393084 164834 infeasible   66      1.5000e+09 9.0001e+08  40.0%  23.6  350s
 398618 167083     cutoff   47      1.5000e+09 9.0001e+08  40.0%  23.6  355s
 405131 169499 1.2750e+09   45   39 1.5000e+09 9.0001e+08  40.0%  23.6  360s
 411758 171960 1.2000e+09   56   36 1.5000e+09 9.0001e+08  40.0%  23.6  365s
 416980 173896 9.0001e+08   48   47 1.5000e+09 9.0001e+08  40.0%  23.5  370s
 422765 176100 1.0844e+09   77   42 1.5000e+09 9.0001e+08  40.0%  23.5  375s
 428305 178928 1.3875e+09   56   27 1.5000e+09 9.0001e+08  40.0%  23.5  380s
 435773 181085 9.0001e+08   65   37 1.5000e+09 9.0001e+08  40.0%  23.5  386s
 440389 182730 1.3000e+09   53   30 1.5000e+09 9.0001e+08  40.0%  23.5  390s
 445902 185027 1.1000e+09   59   37 1.5000e+09 9.0001e+08  40.0%  23.5  395s
 451522 187052 1.4000e+09   61   25 1.5000e+09 9.0001e+08  40.0%  23.4  400s
 458769 189526 1.0135e+09   58   48 1.5000e+09 9.0001e+08  40.0%  23.4  406s
 463157 191275 1.4286e+09   55   38 1.5000e+09 9.0001e+08  40.0%  23.4  410s
 469196 193878     cutoff   54      1.5000e+09 9.0001e+08  40.0%  23.4  416s
 473883 195337 1.2800e+09   71   32 1.5000e+09 9.0001e+08  40.0%  23.4  421s
 479806 197426 9.1668e+08   50   48 1.5000e+09 9.0001e+08  40.0%  23.4  425s
 486377 199841 1.5000e+09   68   24 1.5000e+09 9.0001e+08  40.0%  23.4  430s
 491684 201668 1.1029e+09   52   56 1.5000e+09 9.0001e+08  40.0%  23.4  435s
 496914 203708 1.5000e+09   60   17 1.5000e+09 9.0001e+08  40.0%  23.4  440s
 502581 205998 infeasible   83      1.5000e+09 9.0001e+08  40.0%  23.3  445s
 509193 208281 1.0142e+09   52   38 1.5000e+09 9.0001e+08  40.0%  23.3  450s
 514931 210185 9.0001e+08   51   37 1.5000e+09 9.0001e+08  40.0%  23.3  455s
 520027 211932 1.1000e+09   44   36 1.5000e+09 9.0001e+08  40.0%  23.3  460s
 526246 214236 1.1500e+09   47   42 1.5000e+09 9.0001e+08  40.0%  23.3  465s
 532147 216867 infeasible   48      1.5000e+09 9.0001e+08  40.0%  23.2  470s
 538543 219030 9.0001e+08   55   44 1.5000e+09 9.0001e+08  40.0%  23.2  475s
 542444 220348 1.4000e+09   41   39 1.5000e+09 9.0001e+08  40.0%  23.2  480s
 549153 222798 1.2000e+09   70   34 1.5000e+09 9.0001e+08  40.0%  23.2  485s
 554332 224734 infeasible   52      1.5000e+09 9.0001e+08  40.0%  23.2  490s
 560450 226629 1.1000e+09   62   40 1.5000e+09 9.0001e+08  40.0%  23.2  496s
 565742 228888 9.0001e+08   51   44 1.5000e+09 9.0001e+08  40.0%  23.2  500s
 570564 230441 1.4375e+09   51   30 1.5000e+09 9.0001e+08  40.0%  23.2  505s
 576878 232516 1.0941e+09   67   42 1.5000e+09 9.0001e+08  40.0%  23.2  510s
 581877 234263 1.4500e+09   46   26 1.5000e+09 9.0001e+08  40.0%  23.2  515s
 588930 237082 infeasible   76      1.5000e+09 9.0001e+08  40.0%  23.1  520s
 595189 239303 1.0500e+09   67   45 1.5000e+09 9.0001e+08  40.0%  23.1  525s
 599466 240582 1.2000e+09   43   39 1.5000e+09 9.0001e+08  40.0%  23.1  530s
 605321 242775 1.3796e+09   59   42 1.5000e+09 9.0001e+08  40.0%  23.1  535s
 612017 244938 1.1000e+09   66   38 1.5000e+09 9.0001e+08  40.0%  23.1  540s
 615896 246411 infeasible   74      1.5000e+09 9.0001e+08  40.0%  23.1  545s
 622332 248586 1.1500e+09   54   36 1.5000e+09 9.0001e+08  40.0%  23.1  550s
 628534 250677 infeasible   62      1.5000e+09 9.0001e+08  40.0%  23.1  556s
 635118 253239 1.2000e+09   52   37 1.5000e+09 9.0001e+08  40.0%  23.0  560s
 641073 255127 infeasible   69      1.5000e+09 9.0001e+08  40.0%  23.0  565s
 646861 257214 9.0001e+08   68   37 1.5000e+09 9.0001e+08  40.0%  23.0  570s
 652919 259180 1.1000e+09   56   42 1.5000e+09 9.0001e+08  40.0%  23.0  575s
 657669 260958 1.4000e+09   68   21 1.5000e+09 9.0001e+08  40.0%  23.0  580s
 664545 263327 1.3000e+09   42   44 1.5000e+09 9.0001e+08  40.0%  23.0  585s
 670508 265419 9.0001e+08   61   41 1.5000e+09 9.0001e+08  40.0%  23.0  591s
H673532 259633                    1.500006e+09 9.0001e+08  40.0%  23.0  593s
 676030 260441 1.0000e+09   61   40 1.5000e+09 9.0001e+08  40.0%  23.0  595s
 680456 262025 infeasible   58      1.5000e+09 9.0001e+08  40.0%  22.9  600s

Cutting planes:
  Gomory: 54
  Cover: 8
  Implied bound: 50
  MIR: 71
  Flow cover: 372
  RLT: 179
  Relax-and-lift: 140

Explored 681463 nodes (15636753 simplex iterations) in 600.01 seconds
Thread count was 8 (of 8 available processors)

Solution count 10: 1.50001e+09 1.50001e+09 1.50001e+09 ... 1.60001e+09

Time limit reached
Best objective 1.500006024411e+09, best bound 9.000096250000e+08, gap 39.9996%
